HUN,8,6,13
2,3,5,1,0,10,4,24,3,3,1,1
1,12,0,28,2,27,4,28,5,3,3,5
3,18,5,5,0,18,4,19,1,2,2,4
3,30,2,21,1,24,5,17,4,1,0,19
5,25,2,23,4,11,1,20,3,13,0,18
4,6,2,29,0,10,5,23,1,22,3,6
4,22,2,18,0,1,1,21,5,19,3,29
1,15,0,19,2,12,3,3,4,9,5,10
